p edge 20 85 10
v 3 1 5 19
v 2 9 11
v 1 12
v 1 16
v 4 3 13 15 20
v 3 4 14 17
v 1 18
v 1 2
v 2 6 7
v 2 8 10
e 1 3
e 1 7
e 1 8
e 1 10
e 1 12
e 1 13
e 1 14
e 1 17
e 1 18
e 1 19
e 2 4
e 2 5
e 2 8
e 2 9
e 2 10
e 2 12
e 2 14
e 2 15
e 2 18
e 3 4
e 3 6
e 3 17
e 3 18
e 3 19
e 4 6
e 4 7
e 4 8
e 4 11
e 4 14
e 4 15
e 4 19
e 5 7
e 5 8
e 5 13
e 5 15
e 5 18
e 5 19
e 5 20
e 6 7
e 6 8
e 6 12
e 6 14
e 6 15
e 6 16
e 6 17
e 7 8
e 7 10
e 7 13
e 7 16
e 7 17
e 8 9
e 8 13
e 8 16
e 8 18
e 8 19
e 9 11
e 9 12
e 9 15
e 9 17
e 9 18
e 10 11
e 10 13
e 10 16
e 11 12
e 11 13
e 11 14
e 11 15
e 11 18
e 11 19
e 12 14
e 12 17
e 12 18
e 12 19
e 13 16
e 13 20
e 14 15
e 14 16
e 14 19
e 15 17
e 15 18
e 15 19
e 16 17
e 16 20
e 17 18
e 17 20
